solution status: optimal solution found
objective value:                                    6
M#0#2#2                                             1 	(obj:1)
M#0#2#3                                             1 	(obj:1)
M#1#2#2                                             1 	(obj:1)
M#1#2#3                                             1 	(obj:1)
M#2#2#2                                             1 	(obj:1)
M#2#2#3                                             1 	(obj:1)
